certificates/rado_a11_c108_N20.cnf
c Rad2 upper bound instance: x1 + 11*x2 - x3 = 108, interval [1,20]
p cnf 20 72
1 3 10 0
-1 -3 -10 0
1 11 14 0
-1 -11 -14 0
2 4 10 0
-2 -4 -10 0
2 11 15 0
-2 -11 -15 0
3 5 10 0
-3 -5 -10 0
3 11 16 0
-3 -11 -16 0
4 6 10 0
-4 -6 -10 0
4 11 17 0
-4 -11 -17 0
5 7 10 0
-5 -7 -10 0
5 11 18 0
-5 -11 -18 0
6 8 10 0
-6 -8 -10 0
6 11 19 0
-6 -11 -19 0
7 9 10 0
-7 -9 -10 0
7 11 20 0
-7 -11 -20 0
8 10 0
-8 -10 0
9 10 11 0
-9 -10 -11 0
1 9 10 0
-1 -9 -10 0
10 12 0
-10 -12 0
2 9 11 0
-2 -9 -11 0
10 11 13 0
-10 -11 -13 0
3 9 12 0
-3 -9 -12 0
10 12 14 0
-10 -12 -14 0
4 9 13 0
-4 -9 -13 0
10 13 15 0
-10 -13 -15 0
5 9 14 0
-5 -9 -14 0
10 14 16 0
-10 -14 -16 0
6 9 15 0
-6 -9 -15 0
10 15 17 0
-10 -15 -17 0
7 9 16 0
-7 -9 -16 0
10 16 18 0
-10 -16 -18 0
8 9 17 0
-8 -9 -17 0
10 17 19 0
-10 -17 -19 0
9 18 0
-9 -18 0
10 18 20 0
-10 -18 -20 0
9 10 19 0
-9 -10 -19 0
9 11 20 0
-9 -11 -20 0
