certificates/rado_a11_c108_N20.drat
-18 -20 0
10 -20 0
-20 0
-7 -9 0
d -7 -10 -9 0
11 0
10 0
-8 0
-12 0
-9 0
-13 0
17 0
3 0
18 0
4 0
-19 0
0
